# Solution for model GasLib-40
# Objective value = 45.2004010074061
loadshed[innode_1] 0
loadshed[innode_2] 0
loadshed[innode_3] 0
loadshed[innode_4] 0
loadshed[innode_5] 0
loadshed[innode_6] 0
loadshed[innode_7] 0
loadshed[innode_8] 0
loadshed[source_1] -1.0020557329603297e-01
loadshed[source_2] 5.9777644792056828e-02
loadshed[source_3] 3.2634305018483689e-01
loadshed[sink_1] 0
loadshed[sink_2] 0
loadshed[sink_3] 0
loadshed[sink_4] 0
loadshed[sink_5] 0
loadshed[sink_6] 0
loadshed[sink_7] 0
loadshed[sink_8] 0
loadshed[sink_9] 0
loadshed[sink_10] 0
loadshed[sink_11] 0
loadshed[sink_12] 1
loadshed[sink_13] 0
loadshed[sink_14] 0
loadshed[sink_15] 0
loadshed[sink_16] 0
loadshed[sink_17] 0
loadshed[sink_18] 0
loadshed[sink_19] 0
loadshed[sink_20] 0
loadshed[sink_21] 1
loadshed[sink_22] 0
loadshed[sink_23] 0
loadshed[sink_24] 7.6384617624903539e-01
loadshed[sink_25] 0
loadshed[sink_26] 0
loadshed[sink_27] 0
loadshed[sink_28] 0
loadshed[sink_29] 0
flow[source_1,sink_3] 1.7393180469502909e+02
flow[innode_1,sink_16] 1.6354166666666970e+01
flow[innode_6,sink_13] 7.9805523434579371e+00
flow[sink_13,sink_14] -8.37361432320873
flow[sink_14,sink_10] -24.7277809898754
flow[sink_25,sink_26] 1.2829719446957171e+02
flow[sink_26,sink_9] 1.6354166666669244e+01
flow[sink_9,sink_18] 0
flow[sink_26,sink_4] 9.5588861136235892e+01
flow[sink_4,sink_20] -5.5460737856361334e+01
flow[sink_18,sink_6] -1.6354166666667879e+01
flow[sink_25,innode_8] -1.4122347136169273e+02
flow[sink_6,sink_7] -6.5416666666666671e+01
flow[sink_6,sink_22] 3.2708333333333641e+01
flow[sink_7,sink_24] 3.8620989925938969e+00
flow[sink_22,sink_1] 1.6354166666666970e+01
flow[sink_24,sink_21] 0
flow[sink_21,sink_12] 0
flow[sink_7,sink_5] -8.5632932325928749e+01
flow[sink_5,sink_17] -1.0198709899259542e+02
flow[sink_17,sink_4] -1.3469543232593043e+02
flow[sink_17,sink_8] 1.6354166666668334e+01
flow[sink_3,sink_23] 16.3541666666697
flow[sink_8,sink_20] 0
flow[sink_25,sink_20] 7.1814904523028048e+01
flow[sink_25,sink_15] -83.2233466410323
flow[sink_15,sink_29] -5.6341698020841527e+01
flow[sink_29,sink_28] 1.6354166666667879e+01
flow[sink_29,sink_2] 59.5899819535241
flow[sink_2,sink_15] 4.3235815286857438e+01
flow[sink_29,innode_7] -1.4864001330770017e+02
flow[innode_4,sink_19] 0
flow[sink_19,innode_3] 3.6009345654452616e+01
flow[innode_4,innode_5] 1.0649861432320964e+02
flow[sink_27,innode_5] -1.0649861432320964e+02
flow[sink_27,sink_19] 9.0144447656542965e+01
flow[sink_10,sink_11] 3.2708333333333641e+01
flow[sink_10,innode_2] -3.7780935335423088e+01
flow[sink_10,innode_3] -3.6009345654452616e+01
flow[innode_6,sink_25] -7.9805523434579371e+00
flow[sink_11,innode_1] 1.6354166666666970e+01
flow[sink_19,innode_2] 3.7780935335423088e+01
flow[source_3,innode_4] 1.0649861432320964e+02
flow[source_2,innode_7] 1.4864001330770017e+02
flow[sink_3,innode_8] 1.4122347136169273e+02
pressure[innode_1] 7.5972238569112378e+01
pressure[innode_2] 7.8120818349566477e+01
pressure[innode_3] 7.8041079731230738e+01
pressure[innode_4] 81.01325
pressure[innode_5] 8.0939994637379172e+01
pressure[innode_6] 7.4983360712599264e+01
pressure[innode_7] 81.01325
pressure[innode_8] 8.0431862421262252e+01
pressure[source_1] 81.01325
pressure[source_2] 81.01325
pressure[source_3] 81.01325
pressure[sink_1] 2.4359730631107466e+00
pressure[sink_2] 7.5528230446345759e+01
pressure[sink_3] 8.0431862421262252e+01
pressure[sink_4] 5.3794049450993526e+01
pressure[sink_5] 4.1049132480932137e+01
pressure[sink_6] 4.53705067349812
pressure[sink_7] 5.4350655770983094e+00
pressure[sink_8] 4.8029348976541826e+01
pressure[sink_9] 64.9686255669289
pressure[sink_10] 7.6123939876715923e+01
pressure[sink_11] 7.5972238569112378e+01
pressure[sink_12] 1.01325
pressure[sink_13] 7.4939365261203974e+01
pressure[sink_14] 7.4954350557309567e+01
pressure[sink_15] 7.5387075038454370e+01
pressure[sink_16] 74.9505887342947
pressure[sink_17] 4.8646434171955448e+01
pressure[sink_18] 4.1003457307448805e+00
pressure[sink_19] 7.8120818349566477e+01
pressure[sink_20] 5.7862907058492908e+01
pressure[sink_21] 1.01325
pressure[sink_22] 3.4997422054657568e+00
pressure[sink_23] 8.0267144409602466e+01
pressure[sink_24] 1.01325
pressure[sink_25] 7.4983360712599264e+01
pressure[sink_26] 6.5947464650871325e+01
pressure[sink_27] 8.0056252926776338e+01
pressure[sink_28] 7.6742429666984975e+01
pressure[sink_29] 7.7037711940602151e+01
interdiction[source_1,sink_3] 0
interdiction[innode_1,sink_16] 0
interdiction[innode_6,sink_13] 0
interdiction[sink_13,sink_14] 0
interdiction[sink_14,sink_10] 0
interdiction[sink_25,sink_26] 0
interdiction[sink_26,sink_9] 0
interdiction[sink_9,sink_18] 1
interdiction[sink_26,sink_4] 0
interdiction[sink_4,sink_20] 0
interdiction[sink_18,sink_6] 0
interdiction[sink_25,innode_8] 0
interdiction[sink_6,sink_7] 0
interdiction[sink_6,sink_22] 0
interdiction[sink_7,sink_24] 0
interdiction[sink_22,sink_1] 0
interdiction[sink_24,sink_21] 0
interdiction[sink_21,sink_12] 0
interdiction[sink_7,sink_5] 0
interdiction[sink_5,sink_17] 0
interdiction[sink_17,sink_4] 0
interdiction[sink_17,sink_8] 0
interdiction[sink_3,sink_23] 0
interdiction[sink_8,sink_20] 1
interdiction[sink_25,sink_20] 0
interdiction[sink_25,sink_15] 0
interdiction[sink_15,sink_29] 0
interdiction[sink_29,sink_28] 0
interdiction[sink_29,sink_2] 0
interdiction[sink_2,sink_15] 0
interdiction[sink_29,innode_7] 0
interdiction[innode_4,sink_19] 1
interdiction[sink_19,innode_3] 0
interdiction[innode_4,innode_5] 0
interdiction[sink_27,innode_5] 0
interdiction[sink_27,sink_19] 0
interdiction[sink_10,sink_11] 0
interdiction[sink_10,innode_2] 0
interdiction[sink_10,innode_3] 0
interdiction[innode_6,sink_25] 0
interdiction[sink_11,innode_1] 0
interdiction[sink_19,innode_2] 0
interdiction[source_3,innode_4] 0
interdiction[source_2,innode_7] 0
interdiction[sink_3,innode_8] 0
WCcheckFlow[source_1,sink_3] 39
WCcheckFlow[innode_1,sink_16] 1
WCcheckFlow[innode_6,sink_13] 13
WCcheckFlow[sink_13,sink_14] 12
WCcheckFlow[sink_14,sink_10] 11
WCcheckFlow[sink_25,sink_26] 15
WCcheckFlow[sink_26,sink_9] 1
WCcheckFlow[sink_9,sink_18] 0
WCcheckFlow[sink_26,sink_4] 13
WCcheckFlow[sink_4,sink_20] 1
WCcheckFlow[sink_18,sink_6] -1
WCcheckFlow[sink_25,innode_8] -36
WCcheckFlow[sink_6,sink_7] -4
WCcheckFlow[sink_6,sink_22] 2
WCcheckFlow[sink_7,sink_24] 3
WCcheckFlow[sink_22,sink_1] 1
WCcheckFlow[sink_24,sink_21] 2
WCcheckFlow[sink_21,sink_12] 1
WCcheckFlow[sink_7,sink_5] -8
WCcheckFlow[sink_5,sink_17] -9
WCcheckFlow[sink_17,sink_4] -11
WCcheckFlow[sink_17,sink_8] 1
WCcheckFlow[sink_3,sink_23] 1
WCcheckFlow[sink_8,sink_20] 0
WCcheckFlow[sink_25,sink_20] 0
WCcheckFlow[sink_25,sink_15] 6
WCcheckFlow[sink_15,sink_29] 5
WCcheckFlow[sink_29,sink_28] 1
WCcheckFlow[sink_29,sink_2] 1
WCcheckFlow[sink_2,sink_15] 0
WCcheckFlow[sink_29,innode_7] 2
WCcheckFlow[innode_4,sink_19] 0
WCcheckFlow[sink_19,innode_3] -5
WCcheckFlow[innode_4,innode_5] -2
WCcheckFlow[sink_27,innode_5] 3
WCcheckFlow[sink_27,sink_19] -4
WCcheckFlow[sink_10,sink_11] 3
WCcheckFlow[sink_10,innode_2] 1
WCcheckFlow[sink_10,innode_3] 6
WCcheckFlow[innode_6,sink_25] -14
WCcheckFlow[sink_11,innode_1] 2
WCcheckFlow[sink_19,innode_2] 0
WCcheckFlow[source_3,innode_4] -1
WCcheckFlow[source_2,innode_7] -1
WCcheckFlow[sink_3,innode_8] 37
